c ---- [ banner ] ------------------------------------------------------------
c
c Kissat SAT Solver
c 
c Copyright (c) 2021-2024 Armin Biere University of Freiburg
c Copyright (c) 2019-2021 Armin Biere Johannes Kepler University Linz
c 
c Version 4.0.1 43f02cf3e992cb44653b35e5cb26f93281552ae0
c gcc (Ubuntu 13.2.0-23ubuntu4) 13.2.0 -W -Wall -O3 -DNDEBUG
c Thu Sep 12 12:27:46 CEST 2024 Linux abryzen9 6.8.0-41-generic x86_64
c
c ---- [ parsing ] -----------------------------------------------------------
c
c opened and reading DIMACS file:
c
c   /data/artifact/AMulet2.0_artifact/exp4/cnf_resyn3_64/64_64_U_SP_DT_SE_GenMul_resyn3.cnf
c
c parsed 'p cnf 24920 112266' header
c closing input after reading 2228614 bytes (2 MB)
c finished parsing after 0.03 seconds
c
c ---- [ options ] -----------------------------------------------------------
c
c --stable=0                       (different from default '1')
c
c ---- [ solving ] -----------------------------------------------------------
c
c  seconds switched rate     size/glue tier1  binary          remaining
c         MB reductions conflicts size  tier2    irredundant
c          level restarts redundant glue  trail          variables
c
c *  0.03  9 0 0 0  0 0   0   0 0.0 0 0 0 0 0% 8758 103506 24917 100%
c (  0.05 11 0 0 0  0 0   0   0 0.0 0 0 0 0 0% 8758 103506 24917 100%
c .  0.06 11 0 0 0  0 0   0   0 0.0 0 0 0 0 0% 8754 103506 24917 100%
c =  0.17 18 0 0 0  0 0   0   0 0.0 0 0 0 0 0% 9090 103506 24807 100%
c d  0.18 18 0 0 0  0 0   0   0 0.0 0 0 0 0 0% 8870 103506 24807 100%
c f  0.29 17 0 0 0  0 0   0   0 0.0 0 0 0 0 0% 13837 95727 27596 111%
c e  0.47 19 0 0 0  0 0   0   0 0.0 0 0 0 0 0% 8302 103416 18674 75%
c )  0.47 19 0 0 0  0 0   0   0 0.0 0 0 0 0 0% 8302 103416 18674 75%
c {  0.50 25 0 0 0  0 0   0   0 0.0 0 0 2 6 0% 8302 103416 18674 75%
c -  0.72 27 169 0 1 196 32 1001 770 2.5 13 5 3 8 19% 8327 103416 18674 75%
c -  1.10 27 292 0 2 401 46 2002 1483 3.9 23 6 3 10 25% 8356 103416 18674 75%
c d  1.26 27 262 0 2 478 42 2502 1921 3.6 22 6 3 11 25% 8349 103416 18666 75%
c u  1.29 27 262 0 2 478 42 2502 1579 3.6 22 6 3 11 25% 8358 103416 18666 75%
c v  1.32 27 262 0 2 478 42 2502 1357 3.6 22 6 3 11 25% 8358 103416 18666 75%
c w  1.34 27 262 0 2 478 42 2502 1357 3.6 22 6 3 11 25% 8358 103416 18666 75%
c x  1.37 27 262 0 2 478 42 2502 1357 3.6 22 6 3 11 25% 8358 103414 18666 75%
c =  1.47 27 262 0 2 478 42 2502 1357 3.6 22 6 3 11 25% 8592 103412 18549 74%
c d  1.48 27 262 0 2 478 42 2502 1357 3.6 22 6 3 11 25% 8356 103412 18548 74%
c f  1.53 27 262 0 2 478 42 2502 1357 3.6 22 6 3 11 25% 8917 102277 19120 77%
c c  1.60 22 262 0 2 478 42 2502 1357 3.6 22 6 3 11 25% 8923 102265 19117 77%
c
c  seconds   switched   rate       size/glue tier1     binary          remaining
c         MB  reductions conflicts       size  tier2      irredundant
c           level restarts    redundant    glue    trail          variables
c
c d  1.60 22 262 0 2 478 42 2502 1357 3.6 22 6 3 11 25% 8917 102265 19117 77%
c u  1.62 22 262 0 2 478 42 2502 1324 3.6 22 6 3 11 25% 8917 102265 19117 77%
c v  1.64 22 262 0 2 478 42 2502 1258 3.6 22 6 3 11 25% 8917 102265 19117 77%
c w  1.68 22 262 0 2 478 42 2502 1258 3.6 22 6 3 11 25% 8917 102265 19117 77%
c =  1.76 22 262 0 2 478 42 2502 1258 3.6 22 6 3 11 25% 9419 102265 18866 76%
c d  1.77 22 262 0 2 478 42 2502 1258 3.6 22 6 3 11 25% 8864 102265 18866 76%
c f  1.81 22 262 0 2 478 42 2502 1258 3.6 22 6 3 11 25% 8890 102226 18879 76%
c -  2.04 25 296 0 3 592 43 3418 1686 3.9 24 6 3 10 25% 8925 102226 18879 76%
c -  2.49 25 324 0 4 809 41 5150 2660 4.0 24 6 3 10 24% 9022 102226 18879 76%
c -  2.84 25 330 0 5 1023 39 7151 3675 4.3 27 6 3 10 25% 9132 102226 18879 76%
c d  3.01 25 320 0 5 1125 39 7704 4134 4.3 28 7 3 10 26% 8964 102226 18789 75%
c u  3.03 25 320 0 5 1125 39 7704 3453 4.3 28 7 3 10 26% 8983 102226 18789 75%
c v  3.06 25 320 0 5 1125 39 7704 3145 4.3 28 7 3 10 26% 8985 102226 18789 75%
c w  3.09 25 320 0 5 1125 39 7704 3142 4.3 28 7 3 10 26% 8985 102226 18789 75%
c x  3.11 25 320 0 5 1125 39 7704 3142 4.3 28 7 3 10 26% 8985 101683 18789 75%
c =  3.21 25 320 0 5 1125 39 7704 3142 4.3 28 7 3 10 26% 10119 101683 18222 73%
c d  3.22 25 320 0 5 1125 39 7704 3089 4.3 28 7 3 10 26% 8830 101683 18218 73%
c t  3.23 25 320 0 5 1125 39 7704 3089 4.3 28 7 3 10 26% 8821 101683 18218 73%
c f  3.26 25 320 0 5 1125 39 7704 3089 4.3 28 7 3 10 26% 9127 101205 18371 74%
c u  3.29 25 320 0 5 1125 39 7704 2985 4.3 28 7 3 10 26% 9130 101205 18371 74%
c
c  seconds   switched    rate       size/glue tier1     binary          remaining
c         MB  reductions  conflicts       size  tier2      irredundant
c           level  restarts    redundant    glue    trail          variables
c
c v  3.31 25 320 0 5 1125 39 7704 2914 4.3 28 7 3 10 26% 9130 101205 18371 74%
c w  3.35 25 320 0 5 1125 39 7704 2905 4.3 28 7 3 10 26% 9130 101205 18371 74%
c x  3.37 25 320 0 5 1125 39 7704 2905 4.3 28 7 3 10 26% 9130 100750 18371 74%
c =  3.46 25 320 0 5 1125 39 7704 2905 4.3 28 7 3 10 26% 10234 100750 17819 72%
c d  3.47 25 320 0 5 1125 39 7704 2895 4.3 28 7 3 10 26% 9012 100750 17819 72%
c t  3.48 25 320 0 5 1125 39 7704 2895 4.3 28 7 3 10 26% 8912 100750 17819 72%
c f  3.51 25 320 0 5 1125 39 7704 2895 4.3 28 7 3 10 26% 10912 97750 18819 76%
c -  3.85 25 306 0 6 1279 38 9390 3836 3.7 32 9 3 10 28% 10937 97750 18819 76%
c o  3.92 25 321 0 6 1292 35 10735 4883 3.6 29 8 3 10 27% 10994 97750 18819 76%
c -  4.18 26 310 0 7 1414 34 11839 5106 3.7 31 9 2 10 27% 11008 97750 18819 76%
c s  4.33 26 315 0 7 1468 34 12505 5695 3.7 32 9 2 10 27% 11025 90662 18819 76%
c e  4.40 26 315 0 7 1468 34 12505 5695 3.7 32 9 2 10 27% 10724 90770 18573 75%
c s  4.40 26 315 0 7 1468 34 12505 5695 3.7 32 9 2 10 27% 10728 90728 18573 75%
c ^  4.40 26 315 0 7 1468 34 12505 5695 3.7 32 9 2 10 27% 10728 90728 18573 75%
c -  4.67 26 312 0 8 1575 33 14484 6136 3.8 33 9 2 10 28% 10782 90728 18573 75%
c c  4.86 26 308 0 8 1644 32 15783 7314 3.9 34 9 2 10 27% 10814 90629 18539 74%
c d  4.87 26 308 0 8 1644 32 15783 7298 3.9 34 9 2 10 27% 10367 90629 18316 74%
c u  4.89 26 308 0 8 1644 32 15783 6476 3.9 34 9 2 10 27% 10377 90629 18316 74%
c v  4.92 26 308 0 8 1644 32 15783 5568 3.9 34 9 2 10 27% 10380 90629 18316 74%
c w  4.95 26 308 0 8 1644 32 15783 5568 3.9 34 9 2 10 27% 10380 90629 18316 74%
c
c  seconds   switched    rate        size/glue tier1     binary          remaining
c         MB  reductions   conflicts       size  tier2       irredundant
c           level  restarts     redundant    glue    trail          variables
c
c x  4.97 26 308 0 8 1644 32 15783 5568 3.9 34 9 2 10 27% 10380 90595 18316 74%
c =  5.10 26 308 0 8 1644 32 15783 5568 3.9 34 9 2 10 27% 10894 90595 18059 72%
c d  5.11 26 308 0 8 1644 32 15783 5531 3.9 34 9 2 10 27% 10274 90595 18059 72%
c t  5.12 26 308 0 8 1644 32 15783 5531 3.9 34 9 2 10 27% 10236 90595 18059 72%
c f  5.16 26 308 0 8 1644 32 15783 5531 3.9 34 9 2 10 27% 10274 90519 18078 73%
c b  5.17 26 308 0 8 1644 32 15783 5531 3.9 34 9 2 10 27% 10274 90519 18077 73%
c u  5.18 26 308 0 8 1644 32 15783 5383 3.9 34 9 2 10 27% 10278 90519 18077 73%
c v  5.21 26 308 0 8 1644 32 15783 5265 3.9 34 9 2 10 27% 10278 90519 18077 73%
c w  5.29 26 308 0 8 1644 32 15783 5239 3.9 34 9 2 10 27% 10278 90519 18077 73%
c =  5.43 26 308 0 8 1644 32 15783 5239 3.9 34 9 2 10 27% 11658 90519 17387 70%
c d  5.43 26 308 0 8 1644 32 15783 5179 3.9 34 9 2 10 27% 9840 90519 17387 70%
c -  5.67 26 298 0 9 1744 32 17313 5532 3.9 34 9 2 9 26% 9903 90519 17387 70%
c -  6.11 26 294 0 10 1915 30 20315 7169 3.8 33 9 2 10 27% 9957 90519 17387 70%
c o  6.20 26 293 0 10 1952 30 20746 7575 3.9 33 9 2 10 27% 9958 90519 17387 70%
c -  6.57 26 290 0 11 2104 29 23477 8581 3.9 33 8 2 9 27% 10018 90519 17387 70%
c s  6.89 26 291 0 11 2258 30 25006 9931 4.0 34 9 2 9 27% 10049 87175 17387 70%
c e  6.96 26 291 0 11 2258 30 25006 9931 4.0 34 9 2 9 27% 8571 89365 16410 66%
c s  6.97 26 291 0 11 2258 30 25006 9931 4.0 34 9 2 9 27% 8571 88977 16410 66%
c ^  6.97 26 291 0 11 2258 30 25006 9931 4.0 34 9 2 9 27% 8571 88977 16410 66%
c -  7.15 26 295 0 12 2338 30 26793 9185 4.0 34 8 2 9 27% 8625 88977 16410 66%
c
c  seconds   switched     rate        size/glue tier1    binary         remaining
c         MB   reductions   conflicts       size  tier2     irredundant
c           level   restarts     redundant    glue   trail         variables
c
c c  7.20 26 294 0 12 2340 30 26912 9290 4.0 34 8 2 9 27% 8706 88577 16349 66%
c d  7.20 26 294 0 12 2340 30 26912 9213 4.0 34 8 2 9 27% 8344 88577 16206 65%
c u  7.23 26 294 0 12 2340 30 26912 8212 4.0 34 8 2 9 27% 8362 88577 16206 65%
c v  7.26 26 294 0 12 2340 30 26912 7178 4.0 34 8 2 9 27% 8364 88577 16206 65%
c w  7.26 26 294 0 12 2340 30 26912 7177 4.0 34 8 2 9 27% 8364 88577 16206 65%
c x  7.32 26 294 0 12 2340 30 26912 7177 4.0 34 8 2 9 27% 8364 86849 16206 65%
c =  7.51 26 294 0 12 2340 30 26912 7177 4.0 34 8 2 9 27% 11900 86849 14438 58%
c d  7.51 26 294 0 12 2340 30 26912 6844 4.0 34 8 2 9 27% 8257 86849 14437 58%
c t  7.52 26 294 0 12 2340 30 26912 6844 4.0 34 8 2 9 27% 8256 86849 14437 58%
c c  7.59 26 294 0 12 2340 30 26912 6844 4.0 34 8 2 9 27% 8281 86745 14424 58%
c d  7.60 26 294 0 12 2340 30 26912 6835 4.0 34 8 2 9 27% 8255 86745 14424 58%
c u  7.62 26 294 0 12 2340 30 26912 6342 4.0 34 8 2 9 27% 8255 86745 14424 58%
c v  7.64 26 294 0 12 2340 30 26912 6207 4.0 34 8 2 9 27% 8256 86745 14424 58%
c w  7.64 26 294 0 12 2340 30 26912 6204 4.0 34 8 2 9 27% 8256 86745 14424 58%
c x  7.70 26 294 0 12 2340 30 26912 6204 4.0 34 8 2 9 27% 8256 79616 14424 58%
c =  7.88 26 294 0 12 2340 30 26912 6204 4.0 34 8 2 9 27% 10594 79546 13248 53%
c d  7.88 26 294 0 12 2340 30 26912 6135 4.0 34 8 2 9 27% 8205 79546 13248 53%
c -  8.36 26 284 0 13 2580 29 30257 8034 4.0 33 8 2 9 28% 8212 79544 13248 53%
c -  8.98 26 280 0 14 2942 28 33863 9972 3.9 33 9 2 9 28% 8220 79544 13248 53%
c -  9.59 26 268 0 15 3340 28 37608 11604 3.9 34 9 2 8 29% 8233 79541 13248 53%
c
c  seconds   switched     rate         size/glue tier1    binary         remaining
c         MB   reductions   conflicts        size  tier2     irredundant
c           level   restarts      redundant    glue   trail         variables
c
c o 10.07 26 262 0 15 3591 28 40746 14478 3.8 34 9 2 8 29% 8251 79538 13248 53%
c d 10.18 26 261 0 15 3664 28 41247 14871 3.9 34 9 2 8 29% 8223 79538 13233 53%
c u 10.22 26 261 0 15 3664 28 41247 12638 3.9 34 9 2 8 29% 8234 79538 13233 53%
c v 10.28 26 261 0 15 3664 28 41247 11267 3.9 34 9 2 8 29% 8236 79538 13233 53%
c w 10.32 26 261 0 15 3664 28 41247 11267 3.9 34 9 2 8 29% 8236 79538 13233 53%
c x 10.38 28 261 0 15 3664 28 41247 11266 3.9 34 9 2 8 29% 8236 71518 13233 53%
c d 10.60 28 261 0 15 3664 28 41247 11256 3.9 34 9 2 8 29% 8226 71518 13228 53%
c t 10.61 28 261 0 15 3664 28 41247 11256 3.9 34 9 2 8 29% 8223 71518 13228 53%
c c 10.64 28 261 0 15 3664 28 41247 11254 3.9 34 9 2 8 29% 8252 71382 13210 53%
c d 10.65 28 261 0 15 3664 28 41247 11195 3.9 34 9 2 8 29% 8220 71382 13210 53%
c d 10.65 28 261 0 15 3664 28 41247 11192 3.9 34 9 2 8 29% 8218 71382 13209 53%
c u 10.68 28 261 0 15 3664 28 41247 10815 3.9 34 9 2 8 29% 8224 71382 13209 53%
c v 10.71 28 261 0 15 3664 28 41247 10368 3.9 34 9 2 8 29% 8226 71382 13209 53%
c w 10.80 28 261 0 15 3664 28 41247 10360 3.9 34 9 2 8 29% 8226 71382 13209 53%
c x 10.85 28 261 0 15 3664 28 41247 10360 3.9 34 9 2 8 29% 8226 68697 13209 53%
c d 10.85 28 261 0 15 3664 28 41247 10358 3.9 34 9 2 8 29% 8220 68697 13206 53%
c - 10.88 28 262 0 16 3664 28 41480 9108 3.9 34 9 2 8 29% 8223 68696 13206 53%
c - 11.38 28 256 0 17 3966 27 45480 10992 3.8 33 9 2 8 29% 8255 68694 13206 53%
c - 11.87 28 251 0 18 4310 26 49604 12866 3.8 33 9 2 8 29% 8287 68692 13206 53%
c s 12.12 28 244 0 18 4431 26 52106 15100 3.8 33 9 2 8 29% 8315 66911 13206 53%
c
c  seconds   switched     rate         size/glue tier1    binary         remaining
c         MB   reductions   conflicts        size  tier2     irredundant
c           level   restarts      redundant    glue   trail         variables
c
c e 12.17 28 244 0 18 4431 26 52106 15100 3.8 33 9 2 8 29% 7968 67267 12927 52%
c s 12.17 28 244 0 18 4431 26 52106 15100 3.8 33 9 2 8 29% 7968 67104 12927 52%
c e 12.17 28 244 0 18 4431 26 52106 15100 3.8 33 9 2 8 29% 7968 67108 12925 52%
c ^ 12.17 28 244 0 18 4431 26 52106 15100 3.8 33 9 2 8 29% 7968 67108 12925 52%
c - 12.40 28 245 0 19 4570 26 53846 13755 3.8 32 9 2 7 29% 7987 67108 12925 52%
c - 12.97 28 242 0 20 4938 26 58204 15370 3.7 32 9 2 7 29% 8031 67108 12925 52%
c c 13.11 28 241 0 20 5010 26 58914 15997 3.7 32 9 2 7 29% 8096 66728 12870 52%
c d 13.12 28 241 0 20 5010 26 58914 15833 3.7 32 9 2 7 29% 7986 66728 12870 52%
c u 13.16 28 241 0 20 5010 26 58914 13560 3.7 32 9 2 7 29% 8021 66728 12870 52%
c v 13.21 28 241 0 20 5010 26 58914 11979 3.7 32 9 2 7 29% 8028 66728 12870 52%
c w 13.25 28 241 0 20 5010 26 58914 11978 3.7 32 9 2 7 29% 8028 66728 12870 52%
c x 13.30 28 241 0 20 5010 26 58914 11978 3.7 32 9 2 7 29% 8028 66411 12870 52%
c = 13.52 28 241 0 20 5010 26 58914 11978 3.7 32 9 2 7 29% 8412 66411 12678 51%
c d 13.53 28 241 0 20 5010 26 58914 11859 3.7 32 9 2 7 29% 7980 66411 12669 51%
c t 13.54 28 241 0 20 5010 26 58914 11859 3.7 32 9 2 7 29% 7971 66411 12669 51%
c c 13.58 28 241 0 20 5010 26 58914 11859 3.7 32 9 2 7 29% 7981 66371 12664 51%
c d 13.59 28 241 0 20 5010 26 58914 11841 3.7 32 9 2 7 29% 7971 66371 12664 51%
c u 13.62 28 241 0 20 5010 26 58914 11242 3.7 32 9 2 7 29% 7978 66371 12664 51%
c v 13.65 28 241 0 20 5010 26 58914 10953 3.7 32 9 2 7 29% 7979 66371 12664 51%
c w 13.71 28 241 0 20 5010 26 58914 10922 3.7 32 9 2 7 29% 7979 66371 12664 51%
c
c  seconds   switched     rate         size/glue tier1    binary         remaining
c         MB   reductions   conflicts        size  tier2     irredundant
c           level   restarts      redundant    glue   trail         variables
c
c x 13.77 28 241 0 20 5010 26 58914 10922 3.7 32 9 2 7 29% 7979 66059 12664 51%
c = 14.01 28 241 0 20 5010 26 58914 10922 3.7 32 9 2 7 29% 8547 66055 12380 50%
c d 14.02 28 241 0 20 5010 26 58914 10740 3.7 32 9 2 7 29% 7948 66055 12379 50%
c - 14.35 28 236 0 21 5192 25 62678 12174 3.6 31 9 2 7 29% 7997 66055 12379 50%
c i 14.35 28 236 0 21 5192 25 62692 12180 3.6 31 9 2 7 29% 7999 66055 12377 50%
c i 14.35 28 236 0 21 5192 25 62728 12187 3.6 31 9 2 7 29% 8007 66055 12376 50%
c i 14.40 28 236 0 21 5232 25 63178 12544 3.6 31 9 2 7 29% 8017 66053 12375 50%
c i 14.60 28 234 0 21 5379 25 64392 13699 3.6 31 9 2 7 29% 8027 66053 12374 50%
c - 14.94 28 230 0 22 5589 24 67260 14271 3.6 31 9 2 7 29% 8047 66053 12374 50%
c i 15.02 28 229 0 22 5648 24 67743 14714 3.6 31 9 2 7 29% 8051 66053 12373 50%
c i 15.06 28 228 0 22 5683 24 67962 14913 3.6 31 9 2 7 29% 8056 66053 12372 50%
c i 15.35 28 226 0 22 5889 25 69401 16227 3.6 31 9 2 7 29% 8068 66052 12371 50%
c i 15.44 28 225 0 22 5947 25 70002 16781 3.6 31 9 2 7 29% 8073 66052 12369 50%
c o 15.53 28 224 0 22 6001 24 71133 17691 3.6 31 9 2 7 29% 8089 66052 12369 50%
c - 15.59 28 222 0 23 6030 24 71950 16004 3.5 31 9 2 7 29% 8090 66052 12369 50%
c i 15.67 28 221 0 23 6072 24 72498 16540 3.5 31 9 2 7 29% 8093 66052 12368 50%
c i 15.73 28 220 0 23 6133 24 73036 17005 3.5 31 9 2 7 29% 8099 66051 12367 50%
c i 15.91 28 219 0 23 6246 24 73807 17734 3.5 31 9 2 7 29% 8101 66051 12366 50%
c i 16.01 28 217 0 23 6320 24 74715 18509 3.5 31 9 2 7 29% 8123 66051 12365 50%
c - 16.31 28 214 0 24 6526 24 76745 17529 3.5 30 9 2 7 29% 8127 66051 12365 50%
c
c  seconds   switched     rate         size/glue tier1    binary         remaining
c         MB   reductions   conflicts        size  tier2     irredundant
c           level   restarts      redundant    glue   trail         variables
c
c i 16.35 28 213 0 24 6556 24 77022 17779 3.5 30 9 2 7 29% 8131 66051 12364 50%
c i 16.38 28 211 0 24 6579 23 77974 18432 3.5 30 9 2 7 29% 8165 66051 12363 50%
c d 16.58 28 208 0 24 6738 23 80029 19487 3.4 30 9 2 7 29% 8031 65933 12251 49%
c d 16.58 28 208 0 24 6738 23 80029 19445 3.4 30 9 2 7 29% 7967 65933 12219 49%
c u 16.64 28 208 0 24 6738 23 80029 16589 3.4 30 9 2 7 29% 8010 65933 12219 49%
c v 16.71 28 208 0 24 6738 23 80029 14321 3.4 30 9 2 7 29% 8013 65933 12219 49%
c w 16.81 28 208 0 24 6738 23 80029 14300 3.4 30 9 2 7 29% 8013 65933 12219 49%
c d 16.83 28 208 0 24 6738 23 80029 14266 3.4 30 9 2 7 29% 7975 65933 12200 49%
c b 16.84 28 208 0 24 6738 23 80029 14266 3.4 30 9 2 7 29% 7975 65933 12199 49%
c f 16.85 28 208 0 24 6738 23 80029 14266 3.4 30 9 2 7 29% 8019 65736 12221 49%
c c 16.88 28 208 0 24 6738 23 80029 14125 3.4 30 9 2 7 29% 8077 65284 12178 49%
c d 16.88 28 208 0 24 6738 23 80029 14123 3.4 30 9 2 7 29% 7997 65282 12178 49%
c d 16.88 28 208 0 24 6738 23 80029 14123 3.4 30 9 2 7 29% 7993 65282 12176 49%
c u 16.92 28 208 0 24 6738 23 80029 13412 3.4 30 9 2 7 29% 8013 65282 12175 49%
c v 16.96 28 208 0 24 6738 23 80029 13061 3.4 30 9 2 7 29% 8014 65282 12175 49%
c w 17.03 28 208 0 24 6738 23 80029 12968 3.4 30 9 2 7 29% 8014 65282 12175 49%
c x 17.08 28 208 0 24 6738 23 80029 12966 3.4 30 9 2 7 29% 8014 61678 12172 49%
c d 17.09 28 208 0 24 6738 23 80029 12952 3.4 30 9 2 7 29% 8004 61678 12167 49%
c t 17.10 28 208 0 24 6738 23 80029 12952 3.4 30 9 2 7 29% 7983 61678 12167 49%
c i 17.10 28 208 0 24 6738 23 80029 12952 3.4 30 9 2 7 29% 7983 61678 12167 49%
c
c  seconds   switched     rate         size/glue tier1    binary         remaining
c         MB   reductions   conflicts        size  tier2     irredundant
c           level   restarts      redundant    glue   trail         variables
c
c i 17.14 28 207 0 24 6754 23 80481 13347 3.4 30 9 2 7 29% 7989 61677 12166 49%
c - 17.21 28 204 0 25 6803 23 81643 12648 3.4 29 9 2 7 29% 7978 61675 12166 49%
c i 17.45 28 198 0 25 6934 22 84878 15634 3.4 29 9 2 7 29% 8002 61672 12165 49%
c i 17.46 28 198 0 25 6943 22 84969 15707 3.4 29 9 2 7 29% 8004 61672 12164 49%
c i 17.52 28 197 0 25 6972 22 85516 16230 3.3 29 9 2 7 29% 8007 61672 12163 49%
c i 17.55 28 196 0 25 6998 22 85889 16572 3.3 29 9 2 7 29% 8008 61672 12162 49%
c - 17.61 28 195 0 26 7017 22 86645 14885 3.3 29 9 2 7 29% 8002 61672 12162 49%
c i 17.63 28 195 0 26 7037 21 86954 15172 3.3 28 9 2 7 29% 8004 61672 12161 49%
c i 17.72 28 193 0 26 7105 21 87954 16094 3.3 28 9 2 7 29% 8013 61672 12160 49%
c i 17.75 28 192 0 26 7121 21 88278 16373 3.3 28 9 2 7 29% 8017 61672 12158 49%
c i 17.80 28 191 0 26 7147 21 89054 17087 3.3 28 9 2 7 28% 8020 61672 12157 49%
c i 17.83 28 190 0 26 7155 21 89450 17455 3.3 28 9 2 7 28% 8021 61672 12150 49%
c i 17.86 28 189 0 26 7190 21 90005 17951 3.3 28 9 2 7 28% 8024 61672 12149 49%
c i 17.86 28 189 0 26 7190 21 90011 17951 3.3 28 9 2 7 28% 8027 61672 12147 49%
c i 17.88 28 188 0 26 7204 21 90304 18215 3.3 28 9 2 7 28% 8032 61672 12146 49%
c i 17.88 28 188 0 26 7204 21 90403 18275 3.3 28 9 2 7 28% 8035 61672 12141 49%
c i 17.88 28 188 0 26 7205 21 90536 18385 3.3 28 9 2 7 28% 8040 61672 12140 49%
c i 17.88 28 188 0 26 7205 21 90616 18422 3.3 28 9 2 7 28% 8048 61672 12139 49%
c i 17.88 28 188 0 26 7205 21 90619 18421 3.3 28 9 2 7 28% 8050 61671 12132 49%
c } 17.88 28 188 0 26 7205 21 90629 18420 3.3 28 9 2 7 28% 8054 61671 12122 49%
c
c  seconds   switched     rate         size/glue tier1    binary         remaining
c         MB   reductions   conflicts        size  tier2     irredundant
c           level   restarts      redundant    glue   trail         variables
c
c 0 17.88 28 188 0 26 7205 21 90629 18420 3.3 28 9 2 7 28% 8054 61671 12122 49%
c
c ---- [ result ] ------------------------------------------------------------
c
s UNSATISFIABLE
c
c ---- [ profiling ] ---------------------------------------------------------
c
c          12.47   69.73 %  search
c          12.47   69.73 %  focused
c           4.91   27.46 %  simplify
c           4.88   27.31 %  probe
c           1.96   10.94 %  vivify
c           1.74    9.73 %  sweep
c           0.42    2.37 %  factor
c           0.42    2.34 %  preprocess
c           0.35    1.93 %  congruence
c           0.31    1.71 %  substitute
c           0.26    1.48 %  eliminate
c           0.17    0.97 %  fastel
c           0.10    0.58 %  reduce
c           0.08    0.45 %  transitive
c           0.05    0.30 %  lucky
c           0.05    0.29 %  subsume
c           0.03    0.18 %  backbone
c           0.03    0.17 %  parse
c =============================================
c          17.88  100.00 %  total
c
c ---- [ statistics ] --------------------------------------------------------
c
c chronological:                         3449                4 %  conflicts
c conflicts:                            90629             5067.83 per second
c congruent:                              230                1 %  variables
c decisions:                          1906821               21.04 per conflict
c eliminated:                           10426               42 %  variables
c factored:                              4568               18 %  variables
c fast_eliminated:                       8922               86 %  eliminated
c fast_subsumed:                          251                2 %  per subsumed
c iterations:                              32                0 %  variables
c propagations:                      86237008          4822237    per second
c reductions:                              26             3486    interval
c reordered:                                4            22657    interval
c restarts:                              7205               13    interval
c strengthened:                           164                0 %  checks
c substituted:                           6860               28 %  variables
c subsumed:                             13052                1 %  checks
c switched:                                 0                0    interval
c vivified:                             54117               13 %  checks
c
c ---- [ glue usage ] --------------------------------------------------------
c
c focused glue 2   used 47232 clauses 25.45% accumulated 71.01% tier1
c focused glue 3   used 14252 clauses  7.68% accumulated 78.69%
c focused glue 4-5 used 14481 clauses  7.80% accumulated 86.50%
c focused glue 6   used  4567 clauses  2.46% accumulated 88.96%
c focused glue 7   used  3397 clauses  1.83% accumulated 90.79% tier2
c
c ---- [ resources ] ---------------------------------------------------------
c
c maximum-resident-set-size:         29036544 bytes         28 MB
c process-time:                            18s              17.88 seconds
c
c ---- [ shutting down ] -----------------------------------------------------
c
c exit 20
